language Essence 1.3

letting blksize_delta be
        function(1 --> 2, 2 --> 2, 3 --> 2, 4 --> 2, 5 --> 2, 6 --> 2, 7 --> 2, 8 --> 2, 9 --> 2, 10 --> 2, 11 --> 2,
                 12 --> 2, 13 --> 2, 14 --> 2, 15 --> 2, 16 --> 2, 17 --> 2, 18 --> 2, 19 --> 2, 20 --> 2, 21 --> 2,
                 22 --> 2, 23 --> 2, 24 --> 2, 25 --> 2, 26 --> 2, 27 --> 2, 28 --> 2, 29 --> 2, 30 --> 2, 31 --> 2,
                 32 --> 2, 33 --> 2, 34 --> 2, 35 --> 2, 36 --> 2, 37 --> 2, 38 --> 2, 39 --> 2, 40 --> 2, 41 --> 2,
                 42 --> 2, 43 --> 2, 44 --> 2, 45 --> 2, 46 --> 2, 47 --> 2, 48 --> 2, 49 --> 2, 50 --> 2, 51 --> 2,
                 52 --> 2, 53 --> 2, 54 --> 2, 55 --> 2, 56 --> 2, 57 --> 2, 58 --> 2, 59 --> 2, 60 --> 2, 61 --> 2,
                 62 --> 2, 63 --> 2, 64 --> 2, 65 --> 2, 66 --> 2, 67 --> 2, 68 --> 2, 69 --> 2, 70 --> 2, 71 --> 2,
                 72 --> 2, 73 --> 2, 74 --> 2, 75 --> 2, 76 --> 2, 77 --> 2, 78 --> 2, 79 --> 2, 80 --> 2, 81 --> 2,
                 82 --> 2, 83 --> 2, 84 --> 2, 85 --> 2, 86 --> 2, 87 --> 2, 88 --> 2, 89 --> 2, 90 --> 2, 91 --> 2,
                 92 --> 2, 93 --> 2, 94 --> 2, 95 --> 2, 96 --> 2, 97 --> 2, 98 --> 2, 99 --> 2, 100 --> 2, 101 --> 2,
                 102 --> 2, 103 --> 2, 104 --> 2, 105 --> 2, 106 --> 2, 107 --> 2, 108 --> 2, 109 --> 2, 110 --> 2,
                 111 --> 2, 112 --> 2, 113 --> 2, 114 --> 2, 115 --> 2, 116 --> 2, 117 --> 2, 118 --> 2, 119 --> 2,
                 120 --> 2, 121 --> 2, 122 --> 2, 123 --> 2, 124 --> 2, 125 --> 2, 126 --> 2, 127 --> 2, 128 --> 2,
                 129 --> 2, 130 --> 2, 131 --> 2, 132 --> 2, 133 --> 2, 134 --> 2, 135 --> 2, 136 --> 2, 137 --> 2,
                 138 --> 2, 139 --> 2, 140 --> 2)
letting maxcars be
        function(1 --> 10, 2 --> 8, 3 --> 10, 4 --> 10, 5 --> 10, 6 --> 10, 7 --> 10, 8 --> 10, 9 --> 4, 10 --> 10,
                 11 --> 10, 12 --> 7, 13 --> 10, 14 --> 10, 15 --> 10, 16 --> 10, 17 --> 10, 18 --> 10, 19 --> 10,
                 20 --> 10, 21 --> 10, 22 --> 5, 23 --> 10, 24 --> 10, 25 --> 10, 26 --> 5, 27 --> 10, 28 --> 10,
                 29 --> 10, 30 --> 10, 31 --> 7, 32 --> 10, 33 --> 5, 34 --> 10, 35 --> 8, 36 --> 10, 37 --> 10,
                 38 --> 10, 39 --> 10, 40 --> 10, 41 --> 10, 42 --> 10, 43 --> 10, 44 --> 10, 45 --> 10, 46 --> 10,
                 47 --> 10, 48 --> 10, 49 --> 10, 50 --> 10, 51 --> 10, 52 --> 10, 53 --> 5, 54 --> 9, 55 --> 10,
                 56 --> 9, 57 --> 10, 58 --> 10, 59 --> 10, 60 --> 10, 61 --> 10, 62 --> 10, 63 --> 6, 64 --> 10,
                 65 --> 10, 66 --> 10, 67 --> 10, 68 --> 10, 69 --> 10, 70 --> 10, 71 --> 10, 72 --> 10, 73 --> 10,
                 74 --> 10, 75 --> 10, 76 --> 10, 77 --> 6, 78 --> 10, 79 --> 10, 80 --> 7, 81 --> 10, 82 --> 10,
                 83 --> 10, 84 --> 10, 85 --> 5, 86 --> 10, 87 --> 10, 88 --> 10, 89 --> 10, 90 --> 10, 91 --> 10,
                 92 --> 10, 93 --> 10, 94 --> 10, 95 --> 8, 96 --> 8, 97 --> 4, 98 --> 10, 99 --> 10, 100 --> 6,
                 101 --> 10, 102 --> 10, 103 --> 10, 104 --> 10, 105 --> 10, 106 --> 10, 107 --> 10, 108 --> 10,
                 109 --> 10, 110 --> 10, 111 --> 10, 112 --> 10, 113 --> 9, 114 --> 10, 115 --> 10, 116 --> 10,
                 117 --> 5, 118 --> 10, 119 --> 10, 120 --> 10, 121 --> 10, 122 --> 10, 123 --> 10, 124 --> 10,
                 125 --> 10, 126 --> 6, 127 --> 10, 128 --> 10, 129 --> 10, 130 --> 10, 131 --> 10, 132 --> 10,
                 133 --> 10, 134 --> 10, 135 --> 10, 136 --> 9, 137 --> 6, 138 --> 6, 139 --> 10, 140 --> 10)
letting n_cars be 127
letting n_classes be 2
letting n_options be 140
letting quantity be function(1 --> 66, 2 --> 61)
letting usage be
        relation((1, 1), (1, 2), (1, 4), (1, 5), (1, 6), (1, 7), (1, 8), (1, 9), (1, 10), (1, 11), (1, 12), (1, 13),
                 (1, 14), (1, 15), (1, 16), (1, 17), (1, 18), (1, 19), (1, 20), (1, 21), (1, 22), (1, 24), (1, 25),
                 (1, 27), (1, 28), (1, 29), (1, 30), (1, 31), (1, 32), (1, 34), (1, 35), (1, 36), (1, 37), (1, 38),
                 (1, 39), (1, 40), (1, 41), (1, 42), (1, 43), (1, 44), (1, 45), (1, 46), (1, 47), (1, 48), (1, 49),
                 (1, 50), (1, 52), (1, 53), (1, 54), (1, 55), (1, 56), (1, 57), (1, 58), (1, 59), (1, 60), (1, 61),
                 (1, 62), (1, 63), (1, 64), (1, 65), (1, 66), (1, 67), (1, 68), (1, 70), (1, 71), (1, 72), (1, 73),
                 (1, 74), (1, 75), (1, 76), (1, 77), (1, 78), (1, 79), (1, 80), (1, 81), (1, 82), (1, 83), (1, 84),
                 (1, 85), (1, 86), (1, 88), (1, 89), (1, 90), (1, 91), (1, 92), (1, 93), (1, 94), (1, 95), (1, 96),
                 (1, 97), (1, 98), (1, 99), (1, 100), (1, 101), (1, 102), (1, 103), (1, 104), (1, 105), (1, 106),
                 (1, 107), (1, 108), (1, 109), (1, 110), (1, 111), (1, 112), (1, 113), (1, 114), (1, 115), (1, 117),
                 (1, 118), (1, 119), (1, 120), (1, 121), (1, 122), (1, 123), (1, 124), (1, 125), (1, 126), (1, 127),
                 (1, 128), (1, 129), (1, 131), (1, 132), (1, 133), (1, 134), (1, 135), (1, 136), (1, 137), (1, 138),
                 (1, 139), (2, 3), (2, 23), (2, 26), (2, 33), (2, 51), (2, 69), (2, 87), (2, 116), (2, 130), (2, 140))
$ Visualisation for usage
$   1   1
$   1   2
$   1   4
$   1   5
$   1   6
$   1   7
$   1   8
$   1   9
$   1  10
$   1  11
$   1  12
$   1  13
$   1  14
$   1  15
$   1  16
$   1  17
$   1  18
$   1  19
$   1  20
$   1  21
$   1  22
$   1  24
$   1  25
$   1  27
$   1  28
$   1  29
$   1  30
$   1  31
$   1  32
$   1  34
$   1  35
$   1  36
$   1  37
$   1  38
$   1  39
$   1  40
$   1  41
$   1  42
$   1  43
$   1  44
$   1  45
$   1  46
$   1  47
$   1  48
$   1  49
$   1  50
$   1  52
$   1  53
$   1  54
$   1  55
$   1  56
$   1  57
$   1  58
$   1  59
$   1  60
$   1  61
$   1  62
$   1  63
$   1  64
$   1  65
$   1  66
$   1  67
$   1  68
$   1  70
$   1  71
$   1  72
$   1  73
$   1  74
$   1  75
$   1  76
$   1  77
$   1  78
$   1  79
$   1  80
$   1  81
$   1  82
$   1  83
$   1  84
$   1  85
$   1  86
$   1  88
$   1  89
$   1  90
$   1  91
$   1  92
$   1  93
$   1  94
$   1  95
$   1  96
$   1  97
$   1  98
$   1  99
$   1 100
$   1 101
$   1 102
$   1 103
$   1 104
$   1 105
$   1 106
$   1 107
$   1 108
$   1 109
$   1 110
$   1 111
$   1 112
$   1 113
$   1 114
$   1 115
$   1 117
$   1 118
$   1 119
$   1 120
$   1 121
$   1 122
$   1 123
$   1 124
$   1 125
$   1 126
$   1 127
$   1 128
$   1 129
$   1 131
$   1 132
$   1 133
$   1 134
$   1 135
$   1 136
$   1 137
$   1 138
$   1 139
$   2   3
$   2  23
$   2  26
$   2  33
$   2  51
$   2  69
$   2  87
$   2 116
$   2 130
$   2 140

